3 3 2
30 2 176 1 63 2 21 0 3 1 49 2 37 1 47 0 69 2 79 0 67 2 0 1 59 0 17 2 70 1 175 0 109 2 39 1 19 2 39 1 105 0 132 2 142 1 121 0 191 2 26 1 147 0 193 1 93 2 148 1 138 
30 0 169 1 20 0 29 2 71 0 28 2 59 1 187 0 36 2 188 0 121 2 158 0 80 2 26 0 133 2 186 1 130 0 180 1 168 2 61 1 66 0 14 2 161 0 138 1 62 0 1 1 167 0 171 2 144 1 59 2 81 
30 0 6 1 1 2 166 1 37 2 42 1 186 0 119 1 198 2 194 0 123 1 14 0 56 1 118 2 119 0 143 2 114 0 181 2 134 0 81 1 148 2 134 1 21 0 7 2 163 0 74 1 71 0 75 1 167 0 187 2 122 

-------------
